p cnf 11 21
-1 0
-2 0
11 0
3 4 0
-3 -4 0
-3 -1 10 0
-3 1 -5 10 0
-3 1 5 -10 0
-4 -1 -2 -8 10 0
-4 -1 -2 8 -10 0
-4 -1 2 -11 10 0
-4 -1 2 11 -9 10 0
-4 -1 2 11 9 -10 0
-4 1 -10 0
-3 -2 11 0
-3 2 -11 0
-4 -2 11 0
-4 2 -1 -6 11 0
-4 2 -1 6 -11 0
-4 2 1 -7 11 0
-4 2 1 7 -11 0
